certificates/rado_a14_c172_N35.cnf
c Rad2 upper bound instance: x1 + 14*x2 - x3 = 172, interval [1,35]
p cnf 35 174
1 11 13 0
-1 -11 -13 0
1 14 25 0
-1 -14 -25 0
2 12 13 0
-2 -12 -13 0
2 14 26 0
-2 -14 -26 0
3 13 0
-3 -13 0
3 14 27 0
-3 -14 -27 0
4 13 14 0
-4 -13 -14 0
4 14 28 0
-4 -14 -28 0
1 5 12 0
-1 -5 -12 0
5 13 15 0
-5 -13 -15 0
5 14 29 0
-5 -14 -29 0
2 6 12 0
-2 -6 -12 0
6 13 16 0
-6 -13 -16 0
6 14 30 0
-6 -14 -30 0
3 7 12 0
-3 -7 -12 0
7 13 17 0
-7 -13 -17 0
7 14 31 0
-7 -14 -31 0
4 8 12 0
-4 -8 -12 0
8 13 18 0
-8 -13 -18 0
8 14 32 0
-8 -14 -32 0
5 9 12 0
-5 -9 -12 0
9 13 19 0
-9 -13 -19 0
9 14 33 0
-9 -14 -33 0
6 10 12 0
-6 -10 -12 0
10 13 20 0
-10 -13 -20 0
10 14 34 0
-10 -14 -34 0
7 11 12 0
-7 -11 -12 0
11 13 21 0
-11 -13 -21 0
11 14 35 0
-11 -14 -35 0
8 12 0
-8 -12 0
12 13 22 0
-12 -13 -22 0
9 12 13 0
-9 -12 -13 0
13 23 0
-13 -23 0
10 12 14 0
-10 -12 -14 0
13 14 24 0
-13 -14 -24 0
11 12 15 0
-11 -12 -15 0
13 15 25 0
-13 -15 -25 0
12 16 0
-12 -16 0
13 16 26 0
-13 -16 -26 0
12 13 17 0
-12 -13 -17 0
13 17 27 0
-13 -17 -27 0
12 14 18 0
-12 -14 -18 0
13 18 28 0
-13 -18 -28 0
1 11 19 0
-1 -11 -19 0
12 15 19 0
-12 -15 -19 0
13 19 29 0
-13 -19 -29 0
2 11 20 0
-2 -11 -20 0
12 16 20 0
-12 -16 -20 0
13 20 30 0
-13 -20 -30 0
3 11 21 0
-3 -11 -21 0
12 17 21 0
-12 -17 -21 0
13 21 31 0
-13 -21 -31 0
4 11 22 0
-4 -11 -22 0
12 18 22 0
-12 -18 -22 0
13 22 32 0
-13 -22 -32 0
5 11 23 0
-5 -11 -23 0
12 19 23 0
-12 -19 -23 0
13 23 33 0
-13 -23 -33 0
6 11 24 0
-6 -11 -24 0
12 20 24 0
-12 -20 -24 0
13 24 34 0
-13 -24 -34 0
7 11 25 0
-7 -11 -25 0
12 21 25 0
-12 -21 -25 0
13 25 35 0
-13 -25 -35 0
8 11 26 0
-8 -11 -26 0
12 22 26 0
-12 -22 -26 0
9 11 27 0
-9 -11 -27 0
12 23 27 0
-12 -23 -27 0
10 11 28 0
-10 -11 -28 0
12 24 28 0
-12 -24 -28 0
11 29 0
-11 -29 0
12 25 29 0
-12 -25 -29 0
11 12 30 0
-11 -12 -30 0
12 26 30 0
-12 -26 -30 0
11 13 31 0
-11 -13 -31 0
12 27 31 0
-12 -27 -31 0
11 14 32 0
-11 -14 -32 0
12 28 32 0
-12 -28 -32 0
1 10 33 0
-1 -10 -33 0
11 15 33 0
-11 -15 -33 0
12 29 33 0
-12 -29 -33 0
2 10 34 0
-2 -10 -34 0
11 16 34 0
-11 -16 -34 0
12 30 34 0
-12 -30 -34 0
3 10 35 0
-3 -10 -35 0
11 17 35 0
-11 -17 -35 0
12 31 35 0
-12 -31 -35 0
