certificates/rado_a14_c172_N35.drat
12 -32 -35 0
-12 -33 -35 0
-33 -34 -35 0
-14 -34 -35 0
32 14 -34 0
-34 -35 0
d -33 -34 -35 0
14 -35 0
-35 0
11 -14 0
13 -14 0
-14 0
11 0
-29 0
5 0
-23 0
13 0
-3 0
-31 0
-1 0
-21 0
-15 0
27 0
10 0
12 0
7 0
25 0
-17 0
-9 0
-28 0
-20 0
-8 0
-16 0
-6 0
-2 0
-22 0
0
